(set-option :auto-config false)
(set-option :model true)

(set-option :smt.mbqi false)

(define-sort Str () Int)
(declare-fun strLen (Str) Int)
(declare-fun subString (Str Int Int) Str)
(declare-fun concatString (Str Str) Str)
(define-sort Elt () Int)
(define-sort LSet () (Array Elt Bool))
(define-fun smt_set_emp () LSet ((as const LSet) false))
(define-fun smt_set_sng ((x Elt)) LSet (store ((as const LSet) false) x true))
(define-fun smt_set_mem ((x Elt) (s LSet)) Bool (select s x))
(define-fun smt_set_add ((s LSet) (x Elt)) LSet (store s x true))
(define-fun smt_set_cup ((s1 LSet) (s2 LSet)) LSet ((_ map or) s1 s2))
(define-fun smt_set_cap ((s1 LSet) (s2 LSet)) LSet ((_ map and) s1 s2))
(define-fun smt_set_com ((s LSet)) LSet ((_ map not) s))
(define-fun smt_set_dif ((s1 LSet) (s2 LSet)) LSet (smt_set_cap s1 (smt_set_com s2)))
(define-fun smt_set_sub ((s1 LSet) (s2 LSet)) Bool (= smt_set_emp (smt_set_dif s1 s2)))
(define-sort Map () (Array Elt Elt))
(define-fun smt_map_sel ((m Map) (k Elt)) Elt (select m k))
(define-fun smt_map_sto ((m Map) (k Elt) (v Elt)) Map (store m k v))
(define-fun smt_map_cup ((m1 Map) (m2 Map)) Map ((_ map (+ (Elt Elt) Elt)) m1 m2))
(define-fun smt_map_prj ((s LSet) (m Map)) Map ((_ map (ite (Bool Elt Elt) Elt)) s m ((as const (Array Elt Elt)) 0)))
(define-fun smt_map_to_set ((m Map)) LSet ((_ map (> (Elt Elt) Bool)) m ((as const (Array Elt Elt)) 0)))
(define-fun smt_map_max ((m1 Map) (m2 Map)) Map (lambda ((i Int)) (ite (> (select m1 i) (select m2 i)) (select m1 i) (select m2 i))))
(define-fun smt_map_min ((m1 Map) (m2 Map)) Map (lambda ((i Int)) (ite (< (select m1 i) (select m2 i)) (select m1 i) (select m2 i))))
(define-fun smt_map_shift ((n Int) (m Map)) Map (lambda ((i Int)) (select m (- i n))))
(define-fun smt_map_def ((v Elt)) Map ((as const (Map)) v))
(define-fun bool_to_int ((b Bool)) Int (ite b 1 0))
(define-fun Z3_OP_MUL ((x Int) (y Int)) Int (* x y))
(define-fun Z3_OP_DIV ((x Int) (y Int)) Int (div x y))
(declare-fun papp7 () Int)
(declare-fun lq_anf$36$$35$$35$7205759403793021425$35$$35$dXgB () Int)
(declare-fun lq_tmp$36$x$35$$35$724 () Int)
(declare-fun GHC.Base.id () Int)
(declare-fun lq_tmp$36$x$35$$35$2394 () Int)
(declare-fun lq_tmp$36$x$35$$35$2327 () Int)
(declare-fun GHC.Types.KindRepTypeLitS () Int)
(declare-fun totalityError () Int)
(declare-fun Language.Haskell.TH.Syntax.PragmaD () Int)
(declare-fun lq_anf$36$$35$$35$7205759403793021420$35$$35$dXgw () Int)
(declare-fun lq_tmp$36$x$35$$35$1368 () Int)
(declare-fun fix$36$$36$krep_aXdu () Int)
(declare-fun lq_tmp$36$x$35$$35$2600 () Int)
(declare-fun GHC.Types.$91$$93$ () Int)
(declare-fun Polysemy.Internal.send () Int)
(declare-fun GHC.Types.Word32Rep () Int)
(declare-fun fix$36$$36$krep_aXdn () Int)
(declare-fun lq_tmp$36$x$35$$35$2630 () Int)
(declare-fun GHC.Real.divMod () Int)
(declare-fun GHC.List.reverse () Int)
(declare-fun lq_tmp$36$x$35$$35$2533 () Int)
(declare-fun Language.Haskell.TH.Syntax.NewtypeInstD () Int)
(declare-fun lq_tmp$36$x$35$$35$714 () Int)
(declare-fun lq_tmp$36$x$35$$35$1420 () Int)
(declare-fun lq_tmp$36$x$35$$35$2660 () Int)
(declare-fun GHC.List.scanl () Int)
(declare-fun GHC.Classes.min () Int)
(declare-fun GHC.Types.C$35$ () Int)
(declare-fun lq_tmp$36$x$35$$35$719 () Int)
(declare-fun lq_tmp$36$x$35$$35$2066 () Int)
(declare-fun GHC.Real.$47$ () Int)
(declare-fun lq_tmp$36$x$35$$35$1672 () Int)
(declare-fun GHC.Types.$58$ () Int)
(declare-fun tail () Int)
(declare-fun lq_tmp$36$x$35$$35$1370 () Int)
(declare-fun lq_tmp$36$x$35$$35$2623 () Int)
(declare-fun lq_tmp$36$x$35$$35$1675 () Int)
(declare-fun lq_tmp$36$x$35$$35$2142 () Int)
(declare-fun lq_tmp$36$x$35$$35$660 () Int)
(declare-fun Polysemy.Embed.Type.$36$WEmbed () Int)
(declare-fun isJust () Int)
(declare-fun lq_tmp$36$x$35$$35$2304 () Int)
(declare-fun GHC.Types.Word8Rep () Int)
(declare-fun fix$36$$36$d$40$$37$$44$$37$$41$_aXbT () Int)
(declare-fun lq_tmp$36$x$35$$35$2156 () Int)
(declare-fun GHC.Real.div () Int)
(declare-fun GHC.Classes.$62$$61$ () Int)
(declare-fun lq_tmp$36$x$35$$35$1760 () Int)
(declare-fun GHC.List.span () Int)
(declare-fun lq_tmp$36$x$35$$35$1364 () Int)
(declare-fun lq_tmp$36$x$35$$35$2280 () Int)
(declare-fun lq_tmp$36$x$35$$35$2417 () Int)
(declare-fun lq_tmp$36$x$35$$35$2516 () Int)
(declare-fun lq_tmp$36$x$35$$35$969 () Int)
(declare-fun GHC.Types.krep$36$$42$Arr$42$ () Int)
(declare-fun lq_tmp$36$x$35$$35$2122 () Int)
(declare-fun lq_tmp$36$x$35$$35$2364 () Int)
(declare-fun lq_tmp$36$x$35$$35$723 () Int)
(declare-fun lq_tmp$36$x$35$$35$1648 () Int)
(declare-fun lq_tmp$36$x$35$$35$1057 () Int)
(declare-fun GHC.Tuple.$40$$44$$41$ () Int)
(declare-fun GHC.Real.$94$ () Int)
(declare-fun Language.Haskell.TH.Syntax.NewtypeD () Int)
(declare-fun lq_anf$36$$35$$35$7205759403793021437$35$$35$dXgN () Int)
(declare-fun Language.Haskell.TH.Syntax.RoleAnnotD () Int)
(declare-fun GHC.Classes.$61$$61$ () Int)
(declare-fun Polysemy.Internal.Tactics.GetInitialState () Int)
(declare-fun Language.Haskell.TH.Syntax.SigD () Int)
(declare-fun Language.Haskell.TH.Syntax.DataD () Int)
(declare-fun Language.Haskell.TH.Syntax.DefaultSigD () Int)
(declare-fun GHC.List.$33$$33$ () Int)
(declare-fun GHC.Base.$36$ () Int)
(declare-fun Language.Haskell.TH.Syntax.OpenTypeFamilyD () Int)
(declare-fun GHC.List.last () Int)
(declare-fun lq_tmp$36$x$35$$35$2444 () Int)
(declare-fun InterfaceAdapters.Parameters.KVS.$36$WGetKvs () Int)
(declare-fun Polysemy.Internal.Tactics.$36$WGetInitialState () Int)
(declare-fun GHC.List.zipWith () Int)
(declare-fun papp5 () Int)
(declare-fun GHC.Types.Word16Rep () Int)
(declare-fun Language.Haskell.TH.Syntax.ForeignD () Int)
(declare-fun GHC.Classes.$36$p1$40$$37$$44$$37$$41$ () Int)
(declare-fun snd () Int)
(declare-fun GHC.Base.$43$$43$ () Int)
(declare-fun GHC.Maybe.Just () Int)
(declare-fun x_Tuple22 () Int)
(declare-fun x_aXaa () Int)
(declare-fun lq_tmp$36$x$35$$35$1426 () Int)
(declare-fun Language.Haskell.TH.Syntax.InfixD () Int)
(declare-fun GHC.Real.fromIntegral () Int)
(declare-fun GHC.IO.Exception.IOError () Int)
(declare-fun stringlen () Int)
(declare-fun GHC.List.tail () Int)
(declare-fun x_aXad () Int)
(declare-fun lq_tmp$36$x$35$$35$717 () Int)
(declare-fun lq_tmp$36$x$35$$35$944 () Int)
(declare-fun GHC.Types.Module () Int)
(declare-fun GHC.Stack.Types.FreezeCallStack () Int)
(declare-fun lq_tmp$36$x$35$$35$1423 () Int)
(declare-fun GHC.Types.TrNameD () Int)
(declare-fun GHC.Types.Word64Rep () Int)
(declare-fun GHC.Types.TyCon () Int)
(declare-fun fix$36$$36$krep_aXdm () Int)
(declare-fun lq_tmp$36$x$35$$35$659 () Int)
(declare-fun fromJust () Int)
(declare-fun GHC.Types.UnliftedRep () Int)
(declare-fun fix$36$$36$d$40$$37$$44$$37$$41$_aXcr () Int)
(declare-fun lq_tmp$36$x$35$$35$662 () Int)
(declare-fun lq_tmp$36$x$35$$35$1428 () Int)
(declare-fun Language.Haskell.TH.Syntax.DataInstD () Int)
(declare-fun Data.Foldable.length () Int)
(declare-fun GHC.Types.IntRep () Int)
(declare-fun lq_tmp$36$x$35$$35$1762 () Int)
(declare-fun lq_tmp$36$x$35$$35$2653 () Int)
(declare-fun lq_tmp$36$x$35$$35$1366 () Int)
(declare-fun lq_tmp$36$x$35$$35$1759 () Int)
(declare-fun GHC.Types.DoubleRep () Int)
(declare-fun lq_tmp$36$x$35$$35$1419 () Int)
(declare-fun GHC.Classes.not () Int)
(declare-fun GHC.List.iterate () Int)
(declare-fun Data.Text.Internal.Text () Int)
(declare-fun lit$36$InterfaceAdapters.Parameters.KVS () Str)
(declare-fun lq_tmp$36$x$35$$35$967 () Int)
(declare-fun GHC.Types.Int8Rep () Int)
(declare-fun Language.Haskell.TH.Syntax.ValD () Int)
(declare-fun lq_tmp$36$x$35$$35$1054 () Int)
(declare-fun addrLen () Int)
(declare-fun GHC.Real.$36$W$58$$37$ () Int)
(declare-fun fix$36$$36$krep_aXdq () Int)
(declare-fun GHC.List.splitAt () Int)
(declare-fun lq_anf$36$$35$$35$7205759403793021427$35$$35$dXgD () Int)
(declare-fun GHC.Types.KindRepFun () Int)
(declare-fun GHC.Types.WordRep () Int)
(declare-fun papp3 () Int)
(declare-fun GHC.List.scanl1 () Int)
(declare-fun GHC.Real.toInteger () Int)
(declare-fun Polysemy.Embed.Type.Embed () Int)
(declare-fun lq_tmp$36$x$35$$35$720 () Int)
(declare-fun Data.Foldable.null () Int)
(declare-fun x_aXac () Int)
(declare-fun GHC.Classes.$38$$38$ () Int)
(declare-fun GHC.Classes.$124$$124$ () Int)
(declare-fun GHC.List.dropWhile () Int)
(declare-fun lq_tmp$36$x$35$$35$943 () Int)
(declare-fun lq_tmp$36$x$35$$35$1424 () Int)
(declare-fun Language.Haskell.TH.Syntax.InstanceD () Int)
(declare-fun lq_tmp$36$x$35$$35$2108 () Int)
(declare-fun GHC.Enum.C$58$Bounded () Int)
(declare-fun lq_tmp$36$x$35$$35$2334 () Int)
(declare-fun lq_tmp$36$x$35$$35$715 () Int)
(declare-fun GHC.List.init () Int)
(declare-fun GHC.List.scanr1 () Int)
(declare-fun GHC.Types.True () Bool)
(declare-fun lq_tmp$36$x$35$$35$1421 () Int)
(declare-fun Language.Haskell.TH.Syntax.ClosedTypeFamilyD () Int)
(declare-fun GHC.List.break () Int)
(declare-fun fix$36$$36$krep_aXdo () Int)
(declare-fun Polysemy.Internal.Sing.C$58$ListOfLength () Int)
(declare-fun Polysemy.Internal.Index.C$58$InsertAtIndex () Int)
(declare-fun Language.Haskell.TH.Syntax.DataFamilyD () Int)
(declare-fun GHC.Types.$36$WKindRepVar () Int)
(declare-fun lq_tmp$36$x$35$$35$2065 () Int)
(declare-fun GHC.Stack.Types.EmptyCallStack () Int)
(declare-fun x_Tuple33 () Int)
(declare-fun lq_tmp$36$x$35$$35$664 () Int)
(declare-fun Data.Either.Right () Int)
(declare-fun fix$36$$36$d$40$$37$$44$$37$$41$_aXcT () Int)
(declare-fun InterfaceAdapters.Parameters.KVS.$36$WInsertKvs () Int)
(declare-fun lq_tmp$36$x$35$$35$1674 () Int)
(declare-fun lq_tmp$36$x$35$$35$661 () Int)
(declare-fun cast_as () Int)
(declare-fun Language.Haskell.TH.Syntax.TySynInstD () Int)
(declare-fun Data.Text.Internal.$36$WText () Int)
(declare-fun GHC.Types.KindRepApp () Int)
(declare-fun GHC.List.head () Int)
(declare-fun lq_anf$36$$35$$35$7205759403793021448$35$$35$dXgY () Int)
(declare-fun Language.Haskell.TH.Syntax.ImplicitParamBindD () Int)
(declare-fun lq_tmp$36$x$35$$35$1371 () Int)
(declare-fun lit$36$$39$InsertKvs () Str)
(declare-fun cast_as_int () Int)
(declare-fun GHC.Num.$43$ () Int)
(declare-fun lit$36$KVS () Str)
(declare-fun InterfaceAdapters.Parameters.KVS.GetKvs () Int)
(declare-fun InterfaceAdapters.Parameters.KVS.getKvs () Int)
(declare-fun len () Int)
(declare-fun lq_tmp$36$x$35$$35$1056 () Int)
(declare-fun GHC.Types.Int64Rep () Int)
(declare-fun lit$36$$39$GetKvs () Str)
(declare-fun lq_tmp$36$x$35$$35$2563 () Int)
(declare-fun GHC.Types.LT () Int)
(declare-fun lq_tmp$36$x$35$$35$2044 () Int)
(declare-fun GHC.Tuple.$40$$44$$44$$41$ () Int)
(declare-fun papp1 () Int)
(declare-fun GHC.Classes.$36$p2$40$$37$$44$$37$$41$ () Int)
(declare-fun lq_tmp$36$x$35$$35$968 () Int)
(declare-fun lq_tmp$36$x$35$$35$1650 () Int)
(declare-fun lq_tmp$36$x$35$$35$722 () Int)
(declare-fun lq_tmp$36$x$35$$35$1649 () Int)
(declare-fun lq_tmp$36$x$35$$35$1369 () Int)
(declare-fun GHC.List.drop () Int)
(declare-fun GHC.Types.AddrRep () Int)
(declare-fun lq_tmp$36$x$35$$35$2593 () Int)
(declare-fun papp6 () Int)
(declare-fun GHC.Real.mod () Int)
(declare-fun GHC.Classes.C$58$IP () Int)
(declare-fun Data.Either.Left () Int)
(declare-fun lq_tmp$36$x$35$$35$713 () Int)
(declare-fun Polysemy.Internal.Tactics.GetInspector () Int)
(declare-fun GHC.List.zip () Int)
(declare-fun liquid_internal_this () Int)
(declare-fun GHC.Real.fromRational () Int)
(declare-fun lq_tmp$36$x$35$$35$1427 () Int)
(declare-fun GHC.Classes.$62$ () Int)
(declare-fun GHC.Types.KindRepTyConApp () Int)
(declare-fun fldList () Int)
(declare-fun GHC.Tuple.$40$$41$ () Int)
(declare-fun lq_tmp$36$x$35$$35$2570 () Int)
(declare-fun lqdc$35$$35$$36$select$35$$35$GHC.Maybe.Just$35$$35$1 () Int)
(declare-fun GHC.Types.KindRepVar () Int)
(declare-fun GHC.Types.I$35$ () Int)
(declare-fun lq_tmp$36$x$35$$35$718 () Int)
(declare-fun GHC.Types.KindRepTypeLitD () Int)
(declare-fun x_Tuple31 () Int)
(declare-fun lq_tmp$36$x$35$$35$1673 () Int)
(declare-fun lq_tmp$36$x$35$$35$666 () Int)
(declare-fun lq_tmp$36$x$35$$35$970 () Int)
(declare-fun GHC.Num.Integer.IS () Int)
(declare-fun GHC.Types.FloatRep () Int)
(declare-fun lq_tmp$36$x$35$$35$2540 () Int)
(declare-fun GHC.Real.quot () Int)
(declare-fun Data.Tuple.fst () Int)
(declare-fun lq_tmp$36$x$35$$35$663 () Int)
(declare-fun lq_tmp$36$x$35$$35$1429 () Int)
(declare-fun Language.Haskell.TH.Syntax.KiSigD () Int)
(declare-fun Language.Haskell.TH.Syntax.FunD () Int)
(declare-fun GHC.Types.LiftedRep () Int)
(declare-fun Data.Tuple.snd () Int)
(declare-fun lq_tmp$36$x$35$$35$2297 () Int)
(declare-fun GHC.Types.EQ () Int)
(declare-fun lq_tmp$36$x$35$$35$1761 () Int)
(declare-fun lq_tmp$36$x$35$$35$1365 () Int)
(declare-fun GHC.Real.$58$$37$ () Int)
(declare-fun InterfaceAdapters.Parameters.KVS.insertKvs () Int)
(declare-fun GHC.Types.VecRep () Int)
(declare-fun fst () Int)
(declare-fun GHC.List.takeWhile () Int)
(declare-fun InterfaceAdapters.Parameters.KVS.InsertKvs () Int)
(declare-fun GHC.Num.negate () Int)
(declare-fun GHC.Num.$45$ () Int)
(declare-fun GHC.Real.rem () Int)
(declare-fun lq_tmp$36$x$35$$35$2680 () Int)
(declare-fun GHC.Types.krep$36$$42$ () Int)
(declare-fun GHC.Classes.max () Int)
(declare-fun GHC.List.scanr () Int)
(declare-fun GHC.Real.recip () Int)
(declare-fun lq_tmp$36$x$35$$35$1647 () Int)
(declare-fun lq_tmp$36$x$35$$35$1418 () Int)
(declare-fun autolen () Int)
(declare-fun GHC.List.replicate () Int)
(declare-fun GHC.Base.. () Int)
(declare-fun fix$36$$36$krep_aXdv () Int)
(declare-fun GHC.List.take () Int)
(declare-fun GHC.Types.Int16Rep () Int)
(declare-fun Language.Haskell.TH.Syntax.ClassD () Int)
(declare-fun papp4 () Int)
(declare-fun GHC.Types.$36$WKindRepTYPE () Int)
(declare-fun GHC.Types.eq_sel () Int)
(declare-fun fix$36$$36$d$40$$37$$44$$37$$41$_aXcb () Int)
(declare-fun GHC.Stack.Types.PushCallStack () Int)
(declare-fun lq_anf$36$$35$$35$7205759403793021419$35$$35$dXgv () Int)
(declare-fun lq_tmp$36$x$35$$35$1350 () Int)
(declare-fun lq_tmp$36$x$35$$35$942 () Int)
(declare-fun GHC.Real.quotRem () Int)
(declare-fun lq_anf$36$$35$$35$7205759403793021423$35$$35$dXgz () Int)
(declare-fun GHC.Classes.$60$$61$ () Int)
(declare-fun GHC.Types.Eq$35$ () Int)
(declare-fun lq_tmp$36$x$35$$35$1425 () Int)
(declare-fun GHC.Num.fromInteger () Int)
(declare-fun GHC.Types.KindRepTYPE () Int)
(declare-fun GHC.Classes.$60$ () Int)
(declare-fun GHC.Types.SumRep () Int)
(declare-fun GHC.Tuple.$36$tc$40$$41$ () Int)
(declare-fun GHC.List.filter () Int)
(declare-fun x_Tuple21 () Int)
(declare-fun lq_anf$36$$35$$35$7205759403793021421$35$$35$dXgx () Int)
(declare-fun lq_tmp$36$x$35$$35$945 () Int)
(declare-fun lq_anf$36$$35$$35$7205759403793021416$35$$35$dXgs () Int)
(declare-fun GHC.List.repeat () Int)
(declare-fun head () Int)
(declare-fun lq_tmp$36$x$35$$35$1422 () Int)
(declare-fun GHC.Maybe.Nothing () Int)
(declare-fun lq_tmp$36$x$35$$35$1260 () Int)
(declare-fun Language.Haskell.TH.Syntax.PatSynD () Int)
(declare-fun lq_tmp$36$x$35$$35$716 () Int)
(declare-fun lit$36$MaximumCity$45$0.9.9$45$GJsk72Pe87XAw43lGJhWJP () Str)
(declare-fun GHC.Classes.C$58$$40$$37$$44$$37$$41$ () Int)
(declare-fun GHC.Num.Integer.IP () Int)
(declare-fun lq_tmp$36$x$35$$35$2424 () Int)
(declare-fun Language.Haskell.TH.Syntax.TySynD () Int)
(declare-fun Language.Haskell.TH.Syntax.Name () Int)
(declare-fun GHC.Base.map () Int)
(declare-fun x_Tuple32 () Int)
(declare-fun lq_tmp$36$x$35$$35$665 () Int)
(declare-fun lq_anf$36$$35$$35$7205759403793021417$35$$35$dXgt () Int)
(declare-fun GHC.Err.error () Int)
(declare-fun GHC.Types.TupleRep () Int)
(declare-fun lq_tmp$36$x$35$$35$2357 () Int)
(declare-fun lq_tmp$36$x$35$$35$1974 () Int)
(declare-fun GHC.Classes.compare () Int)
(declare-fun lq_anf$36$$35$$35$7205759403793021459$35$$35$dXh9 () Int)
(declare-fun GHC.Types.TrNameS () Int)
(declare-fun lq_tmp$36$x$35$$35$1367 () Int)
(declare-fun GHC.Num.Integer.IN () Int)
(declare-fun lq_tmp$36$x$35$$35$2387 () Int)
(declare-fun Language.Haskell.TH.Syntax.StandaloneDerivD () Int)
(declare-fun GHC.Num.$42$ () Int)
(declare-fun GHC.Types.False () Bool)
(declare-fun papp2 () Int)
(declare-fun lq_tmp$36$x$35$$35$721 () Int)
(declare-fun GHC.Classes.$47$$61$ () Int)
(declare-fun Data.Text.Internal.$36$tcText () Int)
(declare-fun Language.Haskell.TH.Syntax.PatSynSigD () Int)
(declare-fun GHC.List.cycle () Int)
(declare-fun Polysemy.Internal.Union.C$58$Find () Int)
(declare-fun lq_tmp$36$x$35$$35$1055 () Int)
(declare-fun GHC.Types.GT () Int)
(declare-fun GHC.Types.Int32Rep () Int)
(declare-fun apply$35$$35$13 (Int (_ BitVec 32)) Bool)
(declare-fun apply$35$$35$1 (Int Int) Bool)
(declare-fun apply$35$$35$3 (Int Int) (_ BitVec 32))
(declare-fun apply$35$$35$15 (Int (_ BitVec 32)) (_ BitVec 32))
(declare-fun apply$35$$35$14 (Int (_ BitVec 32)) Str)
(declare-fun apply$35$$35$9 (Int Str) Bool)
(declare-fun apply$35$$35$4 (Int Bool) Int)
(declare-fun apply$35$$35$10 (Int Str) Str)
(declare-fun apply$35$$35$11 (Int Str) (_ BitVec 32))
(declare-fun apply$35$$35$12 (Int (_ BitVec 32)) Int)
(declare-fun apply$35$$35$8 (Int Str) Int)
(declare-fun apply$35$$35$0 (Int Int) Int)
(declare-fun apply$35$$35$6 (Int Bool) Str)
(declare-fun apply$35$$35$7 (Int Bool) (_ BitVec 32))
(declare-fun apply$35$$35$2 (Int Int) Str)
(declare-fun apply$35$$35$5 (Int Bool) Bool)
(declare-fun coerce$35$$35$13 ((_ BitVec 32)) Bool)
(declare-fun coerce$35$$35$1 (Int) Bool)
(declare-fun coerce$35$$35$3 (Int) (_ BitVec 32))
(declare-fun coerce$35$$35$15 ((_ BitVec 32)) (_ BitVec 32))
(declare-fun coerce$35$$35$14 ((_ BitVec 32)) Str)
(declare-fun coerce$35$$35$9 (Str) Bool)
(declare-fun coerce$35$$35$4 (Bool) Int)
(declare-fun coerce$35$$35$10 (Str) Str)
(declare-fun coerce$35$$35$11 (Str) (_ BitVec 32))
(declare-fun coerce$35$$35$12 ((_ BitVec 32)) Int)
(declare-fun coerce$35$$35$8 (Str) Int)
(declare-fun coerce$35$$35$0 (Int) Int)
(declare-fun coerce$35$$35$6 (Bool) Str)
(declare-fun coerce$35$$35$7 (Bool) (_ BitVec 32))
(declare-fun coerce$35$$35$2 (Int) Str)
(declare-fun coerce$35$$35$5 (Bool) Bool)
(declare-fun smt_lambda$35$$35$13 ((_ BitVec 32) Bool) Int)
(declare-fun smt_lambda$35$$35$1 (Int Bool) Int)
(declare-fun smt_lambda$35$$35$3 (Int (_ BitVec 32)) Int)
(declare-fun smt_lambda$35$$35$15 ((_ BitVec 32) (_ BitVec 32)) Int)
(declare-fun smt_lambda$35$$35$14 ((_ BitVec 32) Str) Int)
(declare-fun smt_lambda$35$$35$9 (Str Bool) Int)
(declare-fun smt_lambda$35$$35$4 (Bool Int) Int)
(declare-fun smt_lambda$35$$35$10 (Str Str) Int)
(declare-fun smt_lambda$35$$35$11 (Str (_ BitVec 32)) Int)
(declare-fun smt_lambda$35$$35$12 ((_ BitVec 32) Int) Int)
(declare-fun smt_lambda$35$$35$8 (Str Int) Int)
(declare-fun smt_lambda$35$$35$0 (Int Int) Int)
(declare-fun smt_lambda$35$$35$6 (Bool Str) Int)
(declare-fun smt_lambda$35$$35$7 (Bool (_ BitVec 32)) Int)
(declare-fun smt_lambda$35$$35$2 (Int Str) Int)
(declare-fun smt_lambda$35$$35$5 (Bool Bool) Int)
(declare-fun lam_arg$35$$35$1$35$$35$4 () Bool)
(declare-fun lam_arg$35$$35$2$35$$35$4 () Bool)
(declare-fun lam_arg$35$$35$3$35$$35$4 () Bool)
(declare-fun lam_arg$35$$35$4$35$$35$4 () Bool)
(declare-fun lam_arg$35$$35$5$35$$35$4 () Bool)
(declare-fun lam_arg$35$$35$6$35$$35$4 () Bool)
(declare-fun lam_arg$35$$35$7$35$$35$4 () Bool)
(declare-fun lam_arg$35$$35$1$35$$35$12 () (_ BitVec 32))
(declare-fun lam_arg$35$$35$2$35$$35$12 () (_ BitVec 32))
(declare-fun lam_arg$35$$35$3$35$$35$12 () (_ BitVec 32))
(declare-fun lam_arg$35$$35$4$35$$35$12 () (_ BitVec 32))
(declare-fun lam_arg$35$$35$5$35$$35$12 () (_ BitVec 32))
(declare-fun lam_arg$35$$35$6$35$$35$12 () (_ BitVec 32))
(declare-fun lam_arg$35$$35$7$35$$35$12 () (_ BitVec 32))
(declare-fun lam_arg$35$$35$1$35$$35$8 () Str)
(declare-fun lam_arg$35$$35$2$35$$35$8 () Str)
(declare-fun lam_arg$35$$35$3$35$$35$8 () Str)
(declare-fun lam_arg$35$$35$4$35$$35$8 () Str)
(declare-fun lam_arg$35$$35$5$35$$35$8 () Str)
(declare-fun lam_arg$35$$35$6$35$$35$8 () Str)
(declare-fun lam_arg$35$$35$7$35$$35$8 () Str)
(declare-fun lam_arg$35$$35$1$35$$35$0 () Int)
(declare-fun lam_arg$35$$35$2$35$$35$0 () Int)
(declare-fun lam_arg$35$$35$3$35$$35$0 () Int)
(declare-fun lam_arg$35$$35$4$35$$35$0 () Int)
(declare-fun lam_arg$35$$35$5$35$$35$0 () Int)
(declare-fun lam_arg$35$$35$6$35$$35$0 () Int)
(declare-fun lam_arg$35$$35$7$35$$35$0 () Int)


(assert (distinct lit$36$MaximumCity$45$0.9.9$45$GJsk72Pe87XAw43lGJhWJP lit$36$$39$GetKvs lit$36$KVS lit$36$$39$InsertKvs lit$36$InterfaceAdapters.Parameters.KVS))
(assert (distinct GHC.Types.Int32Rep GHC.Types.Int16Rep GHC.Types.LiftedRep GHC.Types.FloatRep GHC.Types.AddrRep GHC.Types.Int64Rep GHC.Types.WordRep GHC.Types.Int8Rep GHC.Types.DoubleRep GHC.Types.IntRep GHC.Types.UnliftedRep GHC.Types.Word64Rep GHC.Types.Word16Rep GHC.Types.Word8Rep GHC.Types.Word32Rep))
(assert (distinct GHC.Types.GT GHC.Types.EQ GHC.Types.LT))
(assert (distinct GHC.Types.False GHC.Types.True))
(assert (= (strLen lit$36$InterfaceAdapters.Parameters.KVS) 32))
(assert (= (strLen lit$36$$39$InsertKvs) 10))
(assert (= (strLen lit$36$KVS) 3))
(assert (= (strLen lit$36$$39$GetKvs) 7))
(assert (= (strLen lit$36$MaximumCity$45$0.9.9$45$GJsk72Pe87XAw43lGJhWJP) 40))
(push 1)
(push 1)
(pop 1)
(pop 1)
(exit)
